p cnf 321 1286
c p weight 8 1 0
c p weight -8 1 0
c p weight 9 0 0
c p weight -9 1 0
c p weight 10 -1 0
c p weight -10 1 0
c p weight 12 6.12323399573676603586882014729198302312846062338790031898128063403419218957424163818359375E-17 0
c p weight -12 1 0
c p weight 13 1 0
c p weight -13 1 0
c p weight 14 -1 0
c p weight -14 1 0
c p weight 16 -0.1335612396259832357348074083347455598413944244384765625 0
c p weight -16 1 0
c p weight 17 0.99104056186897349078890329110436141490936279296875 0
c p weight -17 1 0
c p weight 18 -1 0
c p weight -18 1 0
c p weight 20 6.12323399573676603586882014729198302312846062338790031898128063403419218957424163818359375E-17 0
c p weight -20 1 0
c p weight 21 1 0
c p weight -21 1 0
c p weight 22 -1 0
c p weight -22 1 0
c p weight 24 -1 0
c p weight -24 1 0
c p weight 25 3.673940397442059375002259206809000622711899723162043418511757408850826323032379150390625E-16 0
c p weight -25 1 0
c p weight 26 -1 0
c p weight -26 1 0
c p weight 28 -0.007515356911958460950362592711826437152922153472900390625 0
c p weight -28 1 0
c p weight 29 -0.999971759306474528017361080856062471866607666015625 0
c p weight -29 1 0
c p weight 30 -1 0
c p weight -30 1 0
c p weight 32 1 0
c p weight -32 1 0
c p weight 33 0 0
c p weight -33 1 0
c p weight 34 -1 0
c p weight -34 1 0
c p weight 36 6.12323399573676603586882014729198302312846062338790031898128063403419218957424163818359375E-17 0
c p weight -36 1 0
c p weight 37 1 0
c p weight -37 1 0
c p weight 38 -1 0
c p weight -38 1 0
c p weight 40 -0.991511476394992374849834959604777395725250244140625 0
c p weight -40 1 0
c p weight 41 -0.130019199263118168108377403768827207386493682861328125 0
c p weight -41 1 0
c p weight 42 -1 0
c p weight -42 1 0
c p weight 44 6.12323399573676603586882014729198302312846062338790031898128063403419218957424163818359375E-17 0
c p weight -44 1 0
c p weight 45 1 0
c p weight -45 1 0
c p weight 46 -1 0
c p weight -46 1 0
c p weight 48 -1 0
c p weight -48 1 0
c p weight 49 3.673940397442059375002259206809000622711899723162043418511757408850826323032379150390625E-16 0
c p weight -49 1 0
c p weight 50 -1 0
c p weight -50 1 0
c p weight 52 -0.99995600138413631707834383632871322333812713623046875 0
c p weight -52 1 0
c p weight 53 0.00938058078421916304023842059223170508630573749542236328125 0
c p weight -53 1 0
c p weight 54 -1 0
c p weight -54 1 0
c p weight 57 -1 0
c p weight -57 1 0
c p weight 59 1 0
c p weight -59 1 0
c p weight 60 0 0
c p weight -60 1 0
c p weight 61 -1 0
c p weight -61 1 0
c p weight 63 6.12323399573676603586882014729198302312846062338790031898128063403419218957424163818359375E-17 0
c p weight -63 1 0
c p weight 64 1 0
c p weight -64 1 0
c p weight 65 -1 0
c p weight -65 1 0
c p weight 67 0.6676589223122142424671210392261855304241180419921875 0
c p weight -67 1 0
c p weight 68 0.74446730180505082952180373467854224145412445068359375 0
c p weight -68 1 0
c p weight 69 -1 0
c p weight -69 1 0
c p weight 71 6.12323399573676603586882014729198302312846062338790031898128063403419218957424163818359375E-17 0
c p weight -71 1 0
c p weight 72 1 0
c p weight -72 1 0
c p weight 73 -1 0
c p weight -73 1 0
c p weight 75 -1 0
c p weight -75 1 0
c p weight 76 3.673940397442059375002259206809000622711899723162043418511757408850826323032379150390625E-16 0
c p weight -76 1 0
c p weight 77 -1 0
c p weight -77 1 0
c p weight 79 0.1576963200385755603516457767909741960465908050537109375 0
c p weight -79 1 0
c p weight 80 0.98748765594628629127527119635487906634807586669921875 0
c p weight -80 1 0
c p weight 81 -1 0
c p weight -81 1 0
c p weight 84 -1 0
c p weight -84 1 0
c p weight 86 1 0
c p weight -86 1 0
c p weight 87 0 0
c p weight -87 1 0
c p weight 88 -1 0
c p weight -88 1 0
c p weight 90 6.12323399573676603586882014729198302312846062338790031898128063403419218957424163818359375E-17 0
c p weight -90 1 0
c p weight 91 1 0
c p weight -91 1 0
c p weight 92 -1 0
c p weight -92 1 0
c p weight 94 -0.3205694895363857543912899927818216383457183837890625 0
c p weight -94 1 0
c p weight 95 -0.94722500092553563177943942719139158725738525390625 0
c p weight -95 1 0
c p weight 96 -1 0
c p weight -96 1 0
c p weight 98 6.12323399573676603586882014729198302312846062338790031898128063403419218957424163818359375E-17 0
c p weight -98 1 0
c p weight 99 1 0
c p weight -99 1 0
c p weight 100 -1 0
c p weight -100 1 0
c p weight 102 -1 0
c p weight -102 1 0
c p weight 103 3.673940397442059375002259206809000622711899723162043418511757408850826323032379150390625E-16 0
c p weight -103 1 0
c p weight 104 -1 0
c p weight -104 1 0
c p weight 106 0.849871234472090453238024565507657825946807861328125 0
c p weight -106 1 0
c p weight 107 0.526990402964688797737835557200014591217041015625 0
c p weight -107 1 0
c p weight 108 -1 0
c p weight -108 1 0
c p weight 111 -1 0
c p weight -111 1 0
c p weight 113 1 0
c p weight -113 1 0
c p weight 114 0 0
c p weight -114 1 0
c p weight 115 -1 0
c p weight -115 1 0
c p weight 117 6.12323399573676603586882014729198302312846062338790031898128063403419218957424163818359375E-17 0
c p weight -117 1 0
c p weight 118 1 0
c p weight -118 1 0
c p weight 119 -1 0
c p weight -119 1 0
c p weight 121 -0.06611814736078959475751304353252635337412357330322265625 0
c p weight -121 1 0
c p weight 122 0.99781180118776757748122463453910313546657562255859375 0
c p weight -122 1 0
c p weight 123 -1 0
c p weight -123 1 0
c p weight 125 6.12323399573676603586882014729198302312846062338790031898128063403419218957424163818359375E-17 0
c p weight -125 1 0
c p weight 126 1 0
c p weight -126 1 0
c p weight 127 -1 0
c p weight -127 1 0
c p weight 129 -1 0
c p weight -129 1 0
c p weight 130 3.673940397442059375002259206809000622711899723162043418511757408850826323032379150390625E-16 0
c p weight -130 1 0
c p weight 131 -1 0
c p weight -131 1 0
c p weight 133 -0.3950720127546685223052236324292607605457305908203125 0
c p weight -133 1 0
c p weight 134 -0.91865015361560520279482489058864302933216094970703125 0
c p weight -134 1 0
c p weight 135 -1 0
c p weight -135 1 0
c p weight 138 -1 0
c p weight -138 1 0
c p weight 140 1 0
c p weight -140 1 0
c p weight 141 0 0
c p weight -141 1 0
c p weight 142 -1 0
c p weight -142 1 0
c p weight 144 6.12323399573676603586882014729198302312846062338790031898128063403419218957424163818359375E-17 0
c p weight -144 1 0
c p weight 145 1 0
c p weight -145 1 0
c p weight 146 -1 0
c p weight -146 1 0
c p weight 148 -0.486641861830141631006796387737267650663852691650390625 0
c p weight -148 1 0
c p weight 149 -0.873601567257347166872705201967619359493255615234375 0
c p weight -149 1 0
c p weight 150 -1 0
c p weight -150 1 0
c p weight 152 6.12323399573676603586882014729198302312846062338790031898128063403419218957424163818359375E-17 0
c p weight -152 1 0
c p weight 153 1 0
c p weight -153 1 0
c p weight 154 -1 0
c p weight -154 1 0
c p weight 156 -1 0
c p weight -156 1 0
c p weight 157 3.673940397442059375002259206809000622711899723162043418511757408850826323032379150390625E-16 0
c p weight -157 1 0
c p weight 158 -1 0
c p weight -158 1 0
c p weight 160 0.957428415249673481213221748475916683673858642578125 0
c p weight -160 1 0
c p weight 161 -0.288670798094470881789419536289642564952373504638671875 0
c p weight -161 1 0
c p weight 162 -1 0
c p weight -162 1 0
c p weight 165 -1 0
c p weight -165 1 0
c p weight 167 1 0
c p weight -167 1 0
c p weight 168 0 0
c p weight -168 1 0
c p weight 169 -1 0
c p weight -169 1 0
c p weight 171 6.12323399573676603586882014729198302312846062338790031898128063403419218957424163818359375E-17 0
c p weight -171 1 0
c p weight 172 1 0
c p weight -172 1 0
c p weight 173 -1 0
c p weight -173 1 0
c p weight 175 -0.9996923050643833352779665801790542900562286376953125 0
c p weight -175 1 0
c p weight 176 -0.0248051445280987915842363378260415629483759403228759765625 0
c p weight -176 1 0
c p weight 177 -1 0
c p weight -177 1 0
c p weight 179 6.12323399573676603586882014729198302312846062338790031898128063403419218957424163818359375E-17 0
c p weight -179 1 0
c p weight 180 1 0
c p weight -180 1 0
c p weight 181 -1 0
c p weight -181 1 0
c p weight 183 -1 0
c p weight -183 1 0
c p weight 184 3.673940397442059375002259206809000622711899723162043418511757408850826323032379150390625E-16 0
c p weight -184 1 0
c p weight 185 -1 0
c p weight -185 1 0
c p weight 187 -0.7602995870341702211447909576236270368099212646484375 0
c p weight -187 1 0
c p weight 188 -0.649572580975882996057180207571946084499359130859375 0
c p weight -188 1 0
c p weight 189 -1 0
c p weight -189 1 0
c p weight 192 -1 0
c p weight -192 1 0
c p weight 194 1 0
c p weight -194 1 0
c p weight 195 0 0
c p weight -195 1 0
c p weight 196 -1 0
c p weight -196 1 0
c p weight 198 6.12323399573676603586882014729198302312846062338790031898128063403419218957424163818359375E-17 0
c p weight -198 1 0
c p weight 199 1 0
c p weight -199 1 0
c p weight 200 -1 0
c p weight -200 1 0
c p weight 202 0.99706717591611571105403299952740781009197235107421875 0
c p weight -202 1 0
c p weight 203 0.0765313446285997012186186339022242464125156402587890625 0
c p weight -203 1 0
c p weight 204 -1 0
c p weight -204 1 0
c p weight 206 6.12323399573676603586882014729198302312846062338790031898128063403419218957424163818359375E-17 0
c p weight -206 1 0
c p weight 207 1 0
c p weight -207 1 0
c p weight 208 -1 0
c p weight -208 1 0
c p weight 210 -1 0
c p weight -210 1 0
c p weight 211 3.673940397442059375002259206809000622711899723162043418511757408850826323032379150390625E-16 0
c p weight -211 1 0
c p weight 212 -1 0
c p weight -212 1 0
c p weight 214 -0.176536506883414434643242429956444539129734039306640625 0
c p weight -214 1 0
c p weight 215 -0.98429409311313154073985742797958664596080780029296875 0
c p weight -215 1 0
c p weight 216 -1 0
c p weight -216 1 0
c p weight 219 -1 0
c p weight -219 1 0
c p weight 221 1 0
c p weight -221 1 0
c p weight 222 0 0
c p weight -222 1 0
c p weight 223 -1 0
c p weight -223 1 0
c p weight 225 6.12323399573676603586882014729198302312846062338790031898128063403419218957424163818359375E-17 0
c p weight -225 1 0
c p weight 226 1 0
c p weight -226 1 0
c p weight 227 -1 0
c p weight -227 1 0
c p weight 229 -0.383385492828330232129019350395537912845611572265625 0
c p weight -229 1 0
c p weight 230 0.92358841693082005530612832444603554904460906982421875 0
c p weight -230 1 0
c p weight 231 -1 0
c p weight -231 1 0
c p weight 233 6.12323399573676603586882014729198302312846062338790031898128063403419218957424163818359375E-17 0
c p weight -233 1 0
c p weight 234 1 0
c p weight -234 1 0
c p weight 235 -1 0
c p weight -235 1 0
c p weight 237 -1 0
c p weight -237 1 0
c p weight 238 3.673940397442059375002259206809000622711899723162043418511757408850826323032379150390625E-16 0
c p weight -238 1 0
c p weight 239 -1 0
c p weight -239 1 0
c p weight 241 -0.260089697491162230580385994471726007759571075439453125 0
c p weight -241 1 0
c p weight 242 0.96558445993033448218056946643628180027008056640625 0
c p weight -242 1 0
c p weight 243 -1 0
c p weight -243 1 0
c p weight 246 -1 0
c p weight -246 1 0
c p weight 248 1 0
c p weight -248 1 0
c p weight 249 0 0
c p weight -249 1 0
c p weight 250 -1 0
c p weight -250 1 0
c p weight 252 6.12323399573676603586882014729198302312846062338790031898128063403419218957424163818359375E-17 0
c p weight -252 1 0
c p weight 253 1 0
c p weight -253 1 0
c p weight 254 -1 0
c p weight -254 1 0
c p weight 256 -0.8694835850581246194934692539391107857227325439453125 0
c p weight -256 1 0
c p weight 257 0.4939618358886352922354490146972239017486572265625 0
c p weight -257 1 0
c p weight 258 -1 0
c p weight -258 1 0
c p weight 260 6.12323399573676603586882014729198302312846062338790031898128063403419218957424163818359375E-17 0
c p weight -260 1 0
c p weight 261 1 0
c p weight -261 1 0
c p weight 262 -1 0
c p weight -262 1 0
c p weight 264 -1 0
c p weight -264 1 0
c p weight 265 3.673940397442059375002259206809000622711899723162043418511757408850826323032379150390625E-16 0
c p weight -265 1 0
c p weight 266 -1 0
c p weight -266 1 0
c p weight 268 0.6268592624517481670665119963814504444599151611328125 0
c p weight -268 1 0
c p weight 269 0.77913250803598887994638744203257374465465545654296875 0
c p weight -269 1 0
c p weight 270 -1 0
c p weight -270 1 0
c p weight 273 -1 0
c p weight -273 1 0
c p weight 275 1 0
c p weight -275 1 0
c p weight 276 0 0
c p weight -276 1 0
c p weight 277 -1 0
c p weight -277 1 0
c p weight 279 6.12323399573676603586882014729198302312846062338790031898128063403419218957424163818359375E-17 0
c p weight -279 1 0
c p weight 280 1 0
c p weight -280 1 0
c p weight 281 -1 0
c p weight -281 1 0
c p weight 283 0.220743702715624878774036687900661490857601165771484375 0
c p weight -283 1 0
c p weight 284 0.97533185004458655686931933814776130020618438720703125 0
c p weight -284 1 0
c p weight 285 -1 0
c p weight -285 1 0
c p weight 287 6.12323399573676603586882014729198302312846062338790031898128063403419218957424163818359375E-17 0
c p weight -287 1 0
c p weight 288 1 0
c p weight -288 1 0
c p weight 289 -1 0
c p weight -289 1 0
c p weight 291 -1 0
c p weight -291 1 0
c p weight 292 3.673940397442059375002259206809000622711899723162043418511757408850826323032379150390625E-16 0
c p weight -292 1 0
c p weight 293 -1 0
c p weight -293 1 0
c p weight 295 -0.69969667950910174880618797033093869686126708984375 0
c p weight -295 1 0
c p weight 296 0.714440030152242666616757560404948890209197998046875 0
c p weight -296 1 0
c p weight 297 -1 0
c p weight -297 1 0
c p weight 299 1 0
c p weight -299 1 0
c p weight 300 0 0
c p weight -300 1 0
c p weight 301 -1 0
c p weight -301 1 0
c p weight 303 6.12323399573676603586882014729198302312846062338790031898128063403419218957424163818359375E-17 0
c p weight -303 1 0
c p weight 304 1 0
c p weight -304 1 0
c p weight 305 -1 0
c p weight -305 1 0
c p weight 307 0.96448382044585267980352227823459543287754058837890625 0
c p weight -307 1 0
c p weight 308 0.264141931730220214102899944919045083224773406982421875 0
c p weight -308 1 0
c p weight 309 -1 0
c p weight -309 1 0
c p weight 311 6.12323399573676603586882014729198302312846062338790031898128063403419218957424163818359375E-17 0
c p weight -311 1 0
c p weight 312 1 0
c p weight -312 1 0
c p weight 313 -1 0
c p weight -313 1 0
c p weight 315 -1 0
c p weight -315 1 0
c p weight 316 3.673940397442059375002259206809000622711899723162043418511757408850826323032379150390625E-16 0
c p weight -316 1 0
c p weight 317 -1 0
c p weight -317 1 0
c p weight 319 -0.458834083137905912597176438794122077524662017822265625 0
c p weight -319 1 0
c p weight 320 -0.8885219660486718407099715477670542895793914794921875 0
c p weight -320 1 0
c p weight 321 -1 0
c p weight -321 1 0
-5 0
-3 0
-1 0
7 1 -2 0
-7 1 2 0
-8 1 0
7 -8 -2 0
-7 -8 2 0
7 8 -1 2 0
-7 8 -1 -2 0
-9 1 0
7 -9 2 0
-7 -9 -2 0
7 9 -1 -2 0
-7 9 -1 2 0
-10 1 0
-10 2 0
-10 -7 0
10 7 -1 -2 0
11 -1 7 0
-11 1 7 0
-12 7 0
11 -12 -1 0
-11 -12 1 0
11 12 1 -7 0
-11 12 -1 -7 0
-13 7 0
11 -13 1 0
-11 -13 -1 0
11 13 -1 -7 0
-11 13 1 -7 0
-14 11 0
-14 7 0
-14 -1 0
14 -11 1 -7 0
15 11 -7 0
-15 11 7 0
-16 11 0
15 -16 -7 0
-15 -16 7 0
15 16 -11 7 0
-15 16 -11 -7 0
-17 11 0
15 -17 7 0
-15 -17 -7 0
15 17 -11 -7 0
-15 17 -11 7 0
-18 11 0
-18 7 0
-18 -15 0
18 15 -11 -7 0
19 -11 15 0
-19 11 15 0
-20 15 0
19 -20 -11 0
-19 -20 11 0
19 20 11 -15 0
-19 20 -11 -15 0
-21 15 0
19 -21 11 0
-19 -21 -11 0
19 21 -11 -15 0
-19 21 11 -15 0
-22 19 0
-22 15 0
-22 -11 0
22 -19 11 -15 0
23 19 -15 0
-23 19 15 0
-24 19 0
23 -24 -15 0
-23 -24 15 0
23 24 -19 15 0
-23 24 -19 -15 0
-25 19 0
23 -25 15 0
-23 -25 -15 0
23 25 -19 -15 0
-23 25 -19 15 0
-26 19 0
-26 15 0
-26 -23 0
26 23 -19 -15 0
27 19 -23 0
-27 19 23 0
-28 19 0
27 -28 -23 0
-27 -28 23 0
27 28 -19 23 0
-27 28 -19 -23 0
-29 19 0
27 -29 23 0
-27 -29 -23 0
27 29 -19 -23 0
-27 29 -19 23 0
-30 19 0
-30 23 0
-30 -27 0
30 27 -19 -23 0
31 3 -4 0
-31 3 4 0
-32 3 0
31 -32 -4 0
-31 -32 4 0
31 32 -3 4 0
-31 32 -3 -4 0
-33 3 0
31 -33 4 0
-31 -33 -4 0
31 33 -3 -4 0
-31 33 -3 4 0
-34 3 0
-34 4 0
-34 -31 0
34 31 -3 -4 0
35 -3 31 0
-35 3 31 0
-36 31 0
35 -36 -3 0
-35 -36 3 0
35 36 3 -31 0
-35 36 -3 -31 0
-37 31 0
35 -37 3 0
-35 -37 -3 0
35 37 -3 -31 0
-35 37 3 -31 0
-38 35 0
-38 31 0
-38 -3 0
38 -35 3 -31 0
39 35 -31 0
-39 35 31 0
-40 35 0
39 -40 -31 0
-39 -40 31 0
39 40 -35 31 0
-39 40 -35 -31 0
-41 35 0
39 -41 31 0
-39 -41 -31 0
39 41 -35 -31 0
-39 41 -35 31 0
-42 35 0
-42 31 0
-42 -39 0
42 39 -35 -31 0
43 -35 39 0
-43 35 39 0
-44 39 0
43 -44 -35 0
-43 -44 35 0
43 44 35 -39 0
-43 44 -35 -39 0
-45 39 0
43 -45 35 0
-43 -45 -35 0
43 45 -35 -39 0
-43 45 35 -39 0
-46 43 0
-46 39 0
-46 -35 0
46 -43 35 -39 0
47 43 -39 0
-47 43 39 0
-48 43 0
47 -48 -39 0
-47 -48 39 0
47 48 -43 39 0
-47 48 -43 -39 0
-49 43 0
47 -49 39 0
-47 -49 -39 0
47 49 -43 -39 0
-47 49 -43 39 0
-50 43 0
-50 39 0
-50 -47 0
50 47 -43 -39 0
51 43 -47 0
-51 43 47 0
-52 43 0
51 -52 -47 0
-51 -52 47 0
51 52 -43 47 0
-51 52 -43 -47 0
-53 43 0
51 -53 47 0
-51 -53 -47 0
51 53 -43 -47 0
-51 53 -43 47 0
-54 43 0
-54 47 0
-54 -51 0
54 51 -43 -47 0
55 19 -43 0
55 -19 43 0
-55 19 43 0
-55 -19 -43 0
56 27 -51 0
56 -27 51 0
-56 27 51 0
-56 -27 -51 0
-57 19 0
-57 51 0
-57 43 -27 0
-57 -43 27 0
57 -19 43 27 -51 0
57 -19 -43 -27 -51 0
58 5 -6 0
-58 5 6 0
-59 5 0
58 -59 -6 0
-58 -59 6 0
58 59 -5 6 0
-58 59 -5 -6 0
-60 5 0
58 -60 6 0
-58 -60 -6 0
58 60 -5 -6 0
-58 60 -5 6 0
-61 5 0
-61 6 0
-61 -58 0
61 58 -5 -6 0
62 -5 58 0
-62 5 58 0
-63 58 0
62 -63 -5 0
-62 -63 5 0
62 63 5 -58 0
-62 63 -5 -58 0
-64 58 0
62 -64 5 0
-62 -64 -5 0
62 64 -5 -58 0
-62 64 5 -58 0
-65 62 0
-65 58 0
-65 -5 0
65 -62 5 -58 0
66 62 -58 0
-66 62 58 0
-67 62 0
66 -67 -58 0
-66 -67 58 0
66 67 -62 58 0
-66 67 -62 -58 0
-68 62 0
66 -68 58 0
-66 -68 -58 0
66 68 -62 -58 0
-66 68 -62 58 0
-69 62 0
-69 58 0
-69 -66 0
69 66 -62 -58 0
70 -62 66 0
-70 62 66 0
-71 66 0
70 -71 -62 0
-70 -71 62 0
70 71 62 -66 0
-70 71 -62 -66 0
-72 66 0
70 -72 62 0
-70 -72 -62 0
70 72 -62 -66 0
-70 72 62 -66 0
-73 70 0
-73 66 0
-73 -62 0
73 -70 62 -66 0
74 70 -66 0
-74 70 66 0
-75 70 0
74 -75 -66 0
-74 -75 66 0
74 75 -70 66 0
-74 75 -70 -66 0
-76 70 0
74 -76 66 0
-74 -76 -66 0
74 76 -70 -66 0
-74 76 -70 66 0
-77 70 0
-77 66 0
-77 -74 0
77 74 -70 -66 0
78 70 -74 0
-78 70 74 0
-79 70 0
78 -79 -74 0
-78 -79 74 0
78 79 -70 74 0
-78 79 -70 -74 0
-80 70 0
78 -80 74 0
-78 -80 -74 0
78 80 -70 -74 0
-78 80 -70 74 0
-81 70 0
-81 74 0
-81 -78 0
81 78 -70 -74 0
82 19 -70 0
82 -19 70 0
-82 19 70 0
-82 -19 -70 0
83 56 -78 0
83 -56 78 0
-83 56 78 0
-83 -56 -78 0
-84 19 0
-84 78 0
-84 70 -56 0
-84 -70 56 0
84 -19 70 56 -78 0
84 -19 -70 -56 -78 0
85 19 -83 0
-85 19 83 0
-86 19 0
85 -86 -83 0
-85 -86 83 0
85 86 -19 83 0
-85 86 -19 -83 0
-87 19 0
85 -87 83 0
-85 -87 -83 0
85 87 -19 -83 0
-85 87 -19 83 0
-88 19 0
-88 83 0
-88 -85 0
88 85 -19 -83 0
89 -19 85 0
-89 19 85 0
-90 85 0
89 -90 -19 0
-89 -90 19 0
89 90 19 -85 0
-89 90 -19 -85 0
-91 85 0
89 -91 19 0
-89 -91 -19 0
89 91 -19 -85 0
-89 91 19 -85 0
-92 89 0
-92 85 0
-92 -19 0
92 -89 19 -85 0
93 89 -85 0
-93 89 85 0
-94 89 0
93 -94 -85 0
-93 -94 85 0
93 94 -89 85 0
-93 94 -89 -85 0
-95 89 0
93 -95 85 0
-93 -95 -85 0
93 95 -89 -85 0
-93 95 -89 85 0
-96 89 0
-96 85 0
-96 -93 0
96 93 -89 -85 0
97 -89 93 0
-97 89 93 0
-98 93 0
97 -98 -89 0
-97 -98 89 0
97 98 89 -93 0
-97 98 -89 -93 0
-99 93 0
97 -99 89 0
-97 -99 -89 0
97 99 -89 -93 0
-97 99 89 -93 0
-100 97 0
-100 93 0
-100 -89 0
100 -97 89 -93 0
101 97 -93 0
-101 97 93 0
-102 97 0
101 -102 -93 0
-101 -102 93 0
101 102 -97 93 0
-101 102 -97 -93 0
-103 97 0
101 -103 93 0
-101 -103 -93 0
101 103 -97 -93 0
-101 103 -97 93 0
-104 97 0
-104 93 0
-104 -101 0
104 101 -97 -93 0
105 97 -101 0
-105 97 101 0
-106 97 0
105 -106 -101 0
-105 -106 101 0
105 106 -97 101 0
-105 106 -97 -101 0
-107 97 0
105 -107 101 0
-105 -107 -101 0
105 107 -97 -101 0
-105 107 -97 101 0
-108 97 0
-108 101 0
-108 -105 0
108 105 -97 -101 0
109 55 -82 0
109 -55 82 0
-109 55 82 0
-109 -55 -82 0
110 51 -78 0
110 -51 78 0
-110 51 78 0
-110 -51 -78 0
-111 55 0
-111 78 0
-111 82 -51 0
-111 -82 51 0
111 -55 82 51 -78 0
111 -55 -82 -51 -78 0
112 55 -110 0
-112 55 110 0
-113 55 0
112 -113 -110 0
-112 -113 110 0
112 113 -55 110 0
-112 113 -55 -110 0
-114 55 0
112 -114 110 0
-112 -114 -110 0
112 114 -55 -110 0
-112 114 -55 110 0
-115 55 0
-115 110 0
-115 -112 0
115 112 -55 -110 0
116 -55 112 0
-116 55 112 0
-117 112 0
116 -117 -55 0
-116 -117 55 0
116 117 55 -112 0
-116 117 -55 -112 0
-118 112 0
116 -118 55 0
-116 -118 -55 0
116 118 -55 -112 0
-116 118 55 -112 0
-119 116 0
-119 112 0
-119 -55 0
119 -116 55 -112 0
120 116 -112 0
-120 116 112 0
-121 116 0
120 -121 -112 0
-120 -121 112 0
120 121 -116 112 0
-120 121 -116 -112 0
-122 116 0
120 -122 112 0
-120 -122 -112 0
120 122 -116 -112 0
-120 122 -116 112 0
-123 116 0
-123 112 0
-123 -120 0
123 120 -116 -112 0
124 -116 120 0
-124 116 120 0
-125 120 0
124 -125 -116 0
-124 -125 116 0
124 125 116 -120 0
-124 125 -116 -120 0
-126 120 0
124 -126 116 0
-124 -126 -116 0
124 126 -116 -120 0
-124 126 116 -120 0
-127 124 0
-127 120 0
-127 -116 0
127 -124 116 -120 0
128 124 -120 0
-128 124 120 0
-129 124 0
128 -129 -120 0
-128 -129 120 0
128 129 -124 120 0
-128 129 -124 -120 0
-130 124 0
128 -130 120 0
-128 -130 -120 0
128 130 -124 -120 0
-128 130 -124 120 0
-131 124 0
-131 120 0
-131 -128 0
131 128 -124 -120 0
132 124 -128 0
-132 124 128 0
-133 124 0
132 -133 -128 0
-132 -133 128 0
132 133 -124 128 0
-132 133 -124 -128 0
-134 124 0
132 -134 128 0
-132 -134 -128 0
132 134 -124 -128 0
-132 134 -124 128 0
-135 124 0
-135 128 0
-135 -132 0
135 132 -124 -128 0
136 97 -124 0
136 -97 124 0
-136 97 124 0
-136 -97 -124 0
137 105 -132 0
137 -105 132 0
-137 105 132 0
-137 -105 -132 0
-138 97 0
-138 132 0
-138 124 -105 0
-138 -124 105 0
138 -97 124 105 -132 0
138 -97 -124 -105 -132 0
139 109 -78 0
-139 109 78 0
-140 109 0
139 -140 -78 0
-139 -140 78 0
139 140 -109 78 0
-139 140 -109 -78 0
-141 109 0
139 -141 78 0
-139 -141 -78 0
139 141 -109 -78 0
-139 141 -109 78 0
-142 109 0
-142 78 0
-142 -139 0
142 139 -109 -78 0
143 -109 139 0
-143 109 139 0
-144 139 0
143 -144 -109 0
-143 -144 109 0
143 144 109 -139 0
-143 144 -109 -139 0
-145 139 0
143 -145 109 0
-143 -145 -109 0
143 145 -109 -139 0
-143 145 109 -139 0
-146 143 0
-146 139 0
-146 -109 0
146 -143 109 -139 0
147 143 -139 0
-147 143 139 0
-148 143 0
147 -148 -139 0
-147 -148 139 0
147 148 -143 139 0
-147 148 -143 -139 0
-149 143 0
147 -149 139 0
-147 -149 -139 0
147 149 -143 -139 0
-147 149 -143 139 0
-150 143 0
-150 139 0
-150 -147 0
150 147 -143 -139 0
151 -143 147 0
-151 143 147 0
-152 147 0
151 -152 -143 0
-151 -152 143 0
151 152 143 -147 0
-151 152 -143 -147 0
-153 147 0
151 -153 143 0
-151 -153 -143 0
151 153 -143 -147 0
-151 153 143 -147 0
-154 151 0
-154 147 0
-154 -143 0
154 -151 143 -147 0
155 151 -147 0
-155 151 147 0
-156 151 0
155 -156 -147 0
-155 -156 147 0
155 156 -151 147 0
-155 156 -151 -147 0
-157 151 0
155 -157 147 0
-155 -157 -147 0
155 157 -151 -147 0
-155 157 -151 147 0
-158 151 0
-158 147 0
-158 -155 0
158 155 -151 -147 0
159 151 -155 0
-159 151 155 0
-160 151 0
159 -160 -155 0
-159 -160 155 0
159 160 -151 155 0
-159 160 -151 -155 0
-161 151 0
159 -161 155 0
-159 -161 -155 0
159 161 -151 -155 0
-159 161 -151 155 0
-162 151 0
-162 155 0
-162 -159 0
162 159 -151 -155 0
163 97 -151 0
163 -97 151 0
-163 97 151 0
-163 -97 -151 0
164 137 -159 0
164 -137 159 0
-164 137 159 0
-164 -137 -159 0
-165 97 0
-165 159 0
-165 151 -137 0
-165 -151 137 0
165 -97 151 137 -159 0
165 -97 -151 -137 -159 0
166 97 -164 0
-166 97 164 0
-167 97 0
166 -167 -164 0
-166 -167 164 0
166 167 -97 164 0
-166 167 -97 -164 0
-168 97 0
166 -168 164 0
-166 -168 -164 0
166 168 -97 -164 0
-166 168 -97 164 0
-169 97 0
-169 164 0
-169 -166 0
169 166 -97 -164 0
170 -97 166 0
-170 97 166 0
-171 166 0
170 -171 -97 0
-170 -171 97 0
170 171 97 -166 0
-170 171 -97 -166 0
-172 166 0
170 -172 97 0
-170 -172 -97 0
170 172 -97 -166 0
-170 172 97 -166 0
-173 170 0
-173 166 0
-173 -97 0
173 -170 97 -166 0
174 170 -166 0
-174 170 166 0
-175 170 0
174 -175 -166 0
-174 -175 166 0
174 175 -170 166 0
-174 175 -170 -166 0
-176 170 0
174 -176 166 0
-174 -176 -166 0
174 176 -170 -166 0
-174 176 -170 166 0
-177 170 0
-177 166 0
-177 -174 0
177 174 -170 -166 0
178 -170 174 0
-178 170 174 0
-179 174 0
178 -179 -170 0
-178 -179 170 0
178 179 170 -174 0
-178 179 -170 -174 0
-180 174 0
178 -180 170 0
-178 -180 -170 0
178 180 -170 -174 0
-178 180 170 -174 0
-181 178 0
-181 174 0
-181 -170 0
181 -178 170 -174 0
182 178 -174 0
-182 178 174 0
-183 178 0
182 -183 -174 0
-182 -183 174 0
182 183 -178 174 0
-182 183 -178 -174 0
-184 178 0
182 -184 174 0
-182 -184 -174 0
182 184 -178 -174 0
-182 184 -178 174 0
-185 178 0
-185 174 0
-185 -182 0
185 182 -178 -174 0
186 178 -182 0
-186 178 182 0
-187 178 0
186 -187 -182 0
-186 -187 182 0
186 187 -178 182 0
-186 187 -178 -182 0
-188 178 0
186 -188 182 0
-186 -188 -182 0
186 188 -178 -182 0
-186 188 -178 182 0
-189 178 0
-189 182 0
-189 -186 0
189 186 -178 -182 0
190 136 -163 0
190 -136 163 0
-190 136 163 0
-190 -136 -163 0
191 132 -159 0
191 -132 159 0
-191 132 159 0
-191 -132 -159 0
-192 136 0
-192 159 0
-192 163 -132 0
-192 -163 132 0
192 -136 163 132 -159 0
192 -136 -163 -132 -159 0
193 136 -191 0
-193 136 191 0
-194 136 0
193 -194 -191 0
-193 -194 191 0
193 194 -136 191 0
-193 194 -136 -191 0
-195 136 0
193 -195 191 0
-193 -195 -191 0
193 195 -136 -191 0
-193 195 -136 191 0
-196 136 0
-196 191 0
-196 -193 0
196 193 -136 -191 0
197 -136 193 0
-197 136 193 0
-198 193 0
197 -198 -136 0
-197 -198 136 0
197 198 136 -193 0
-197 198 -136 -193 0
-199 193 0
197 -199 136 0
-197 -199 -136 0
197 199 -136 -193 0
-197 199 136 -193 0
-200 197 0
-200 193 0
-200 -136 0
200 -197 136 -193 0
201 197 -193 0
-201 197 193 0
-202 197 0
201 -202 -193 0
-201 -202 193 0
201 202 -197 193 0
-201 202 -197 -193 0
-203 197 0
201 -203 193 0
-201 -203 -193 0
201 203 -197 -193 0
-201 203 -197 193 0
-204 197 0
-204 193 0
-204 -201 0
204 201 -197 -193 0
205 -197 201 0
-205 197 201 0
-206 201 0
205 -206 -197 0
-205 -206 197 0
205 206 197 -201 0
-205 206 -197 -201 0
-207 201 0
205 -207 197 0
-205 -207 -197 0
205 207 -197 -201 0
-205 207 197 -201 0
-208 205 0
-208 201 0
-208 -197 0
208 -205 197 -201 0
209 205 -201 0
-209 205 201 0
-210 205 0
209 -210 -201 0
-209 -210 201 0
209 210 -205 201 0
-209 210 -205 -201 0
-211 205 0
209 -211 201 0
-209 -211 -201 0
209 211 -205 -201 0
-209 211 -205 201 0
-212 205 0
-212 201 0
-212 -209 0
212 209 -205 -201 0
213 205 -209 0
-213 205 209 0
-214 205 0
213 -214 -209 0
-213 -214 209 0
213 214 -205 209 0
-213 214 -205 -209 0
-215 205 0
213 -215 209 0
-213 -215 -209 0
213 215 -205 -209 0
-213 215 -205 209 0
-216 205 0
-216 209 0
-216 -213 0
216 213 -205 -209 0
217 178 -205 0
217 -178 205 0
-217 178 205 0
-217 -178 -205 0
218 186 -213 0
218 -186 213 0
-218 186 213 0
-218 -186 -213 0
-219 178 0
-219 213 0
-219 205 -186 0
-219 -205 186 0
219 -178 205 186 -213 0
219 -178 -205 -186 -213 0
220 190 -159 0
-220 190 159 0
-221 190 0
220 -221 -159 0
-220 -221 159 0
220 221 -190 159 0
-220 221 -190 -159 0
-222 190 0
220 -222 159 0
-220 -222 -159 0
220 222 -190 -159 0
-220 222 -190 159 0
-223 190 0
-223 159 0
-223 -220 0
223 220 -190 -159 0
224 -190 220 0
-224 190 220 0
-225 220 0
224 -225 -190 0
-224 -225 190 0
224 225 190 -220 0
-224 225 -190 -220 0
-226 220 0
224 -226 190 0
-224 -226 -190 0
224 226 -190 -220 0
-224 226 190 -220 0
-227 224 0
-227 220 0
-227 -190 0
227 -224 190 -220 0
228 224 -220 0
-228 224 220 0
-229 224 0
228 -229 -220 0
-228 -229 220 0
228 229 -224 220 0
-228 229 -224 -220 0
-230 224 0
228 -230 220 0
-228 -230 -220 0
228 230 -224 -220 0
-228 230 -224 220 0
-231 224 0
-231 220 0
-231 -228 0
231 228 -224 -220 0
232 -224 228 0
-232 224 228 0
-233 228 0
232 -233 -224 0
-232 -233 224 0
232 233 224 -228 0
-232 233 -224 -228 0
-234 228 0
232 -234 224 0
-232 -234 -224 0
232 234 -224 -228 0
-232 234 224 -228 0
-235 232 0
-235 228 0
-235 -224 0
235 -232 224 -228 0
236 232 -228 0
-236 232 228 0
-237 232 0
236 -237 -228 0
-236 -237 228 0
236 237 -232 228 0
-236 237 -232 -228 0
-238 232 0
236 -238 228 0
-236 -238 -228 0
236 238 -232 -228 0
-236 238 -232 228 0
-239 232 0
-239 228 0
-239 -236 0
239 236 -232 -228 0
240 232 -236 0
-240 232 236 0
-241 232 0
240 -241 -236 0
-240 -241 236 0
240 241 -232 236 0
-240 241 -232 -236 0
-242 232 0
240 -242 236 0
-240 -242 -236 0
240 242 -232 -236 0
-240 242 -232 236 0
-243 232 0
-243 236 0
-243 -240 0
243 240 -232 -236 0
244 178 -232 0
244 -178 232 0
-244 178 232 0
-244 -178 -232 0
245 218 -240 0
245 -218 240 0
-245 218 240 0
-245 -218 -240 0
-246 178 0
-246 240 0
-246 232 -218 0
-246 -232 218 0
246 -178 232 218 -240 0
246 -178 -232 -218 -240 0
247 178 -245 0
-247 178 245 0
-248 178 0
247 -248 -245 0
-247 -248 245 0
247 248 -178 245 0
-247 248 -178 -245 0
-249 178 0
247 -249 245 0
-247 -249 -245 0
247 249 -178 -245 0
-247 249 -178 245 0
-250 178 0
-250 245 0
-250 -247 0
250 247 -178 -245 0
251 -178 247 0
-251 178 247 0
-252 247 0
251 -252 -178 0
-251 -252 178 0
251 252 178 -247 0
-251 252 -178 -247 0
-253 247 0
251 -253 178 0
-251 -253 -178 0
251 253 -178 -247 0
-251 253 178 -247 0
-254 251 0
-254 247 0
-254 -178 0
254 -251 178 -247 0
255 251 -247 0
-255 251 247 0
-256 251 0
255 -256 -247 0
-255 -256 247 0
255 256 -251 247 0
-255 256 -251 -247 0
-257 251 0
255 -257 247 0
-255 -257 -247 0
255 257 -251 -247 0
-255 257 -251 247 0
-258 251 0
-258 247 0
-258 -255 0
258 255 -251 -247 0
259 -251 255 0
-259 251 255 0
-260 255 0
259 -260 -251 0
-259 -260 251 0
259 260 251 -255 0
-259 260 -251 -255 0
-261 255 0
259 -261 251 0
-259 -261 -251 0
259 261 -251 -255 0
-259 261 251 -255 0
-262 259 0
-262 255 0
-262 -251 0
262 -259 251 -255 0
263 259 -255 0
-263 259 255 0
-264 259 0
263 -264 -255 0
-263 -264 255 0
263 264 -259 255 0
-263 264 -259 -255 0
-265 259 0
263 -265 255 0
-263 -265 -255 0
263 265 -259 -255 0
-263 265 -259 255 0
-266 259 0
-266 255 0
-266 -263 0
266 263 -259 -255 0
267 259 -263 0
-267 259 263 0
-268 259 0
267 -268 -263 0
-267 -268 263 0
267 268 -259 263 0
-267 268 -259 -263 0
-269 259 0
267 -269 263 0
-267 -269 -263 0
267 269 -259 -263 0
-267 269 -259 263 0
-270 259 0
-270 263 0
-270 -267 0
270 267 -259 -263 0
271 217 -244 0
271 -217 244 0
-271 217 244 0
-271 -217 -244 0
272 213 -240 0
272 -213 240 0
-272 213 240 0
-272 -213 -240 0
-273 217 0
-273 240 0
-273 244 -213 0
-273 -244 213 0
273 -217 244 213 -240 0
273 -217 -244 -213 -240 0
274 217 -272 0
-274 217 272 0
-275 217 0
274 -275 -272 0
-274 -275 272 0
274 275 -217 272 0
-274 275 -217 -272 0
-276 217 0
274 -276 272 0
-274 -276 -272 0
274 276 -217 -272 0
-274 276 -217 272 0
-277 217 0
-277 272 0
-277 -274 0
277 274 -217 -272 0
278 -217 274 0
-278 217 274 0
-279 274 0
278 -279 -217 0
-278 -279 217 0
278 279 217 -274 0
-278 279 -217 -274 0
-280 274 0
278 -280 217 0
-278 -280 -217 0
278 280 -217 -274 0
-278 280 217 -274 0
-281 278 0
-281 274 0
-281 -217 0
281 -278 217 -274 0
282 278 -274 0
-282 278 274 0
-283 278 0
282 -283 -274 0
-282 -283 274 0
282 283 -278 274 0
-282 283 -278 -274 0
-284 278 0
282 -284 274 0
-282 -284 -274 0
282 284 -278 -274 0
-282 284 -278 274 0
-285 278 0
-285 274 0
-285 -282 0
285 282 -278 -274 0
286 -278 282 0
-286 278 282 0
-287 282 0
286 -287 -278 0
-286 -287 278 0
286 287 278 -282 0
-286 287 -278 -282 0
-288 282 0
286 -288 278 0
-286 -288 -278 0
286 288 -278 -282 0
-286 288 278 -282 0
-289 286 0
-289 282 0
-289 -278 0
289 -286 278 -282 0
290 286 -282 0
-290 286 282 0
-291 286 0
290 -291 -282 0
-290 -291 282 0
290 291 -286 282 0
-290 291 -286 -282 0
-292 286 0
290 -292 282 0
-290 -292 -282 0
290 292 -286 -282 0
-290 292 -286 282 0
-293 286 0
-293 282 0
-293 -290 0
293 290 -286 -282 0
294 286 -290 0
-294 286 290 0
-295 286 0
294 -295 -290 0
-294 -295 290 0
294 295 -286 290 0
-294 295 -286 -290 0
-296 286 0
294 -296 290 0
-294 -296 -290 0
294 296 -286 -290 0
-294 296 -286 290 0
-297 286 0
-297 290 0
-297 -294 0
297 294 -286 -290 0
298 271 -240 0
-298 271 240 0
-299 271 0
298 -299 -240 0
-298 -299 240 0
298 299 -271 240 0
-298 299 -271 -240 0
-300 271 0
298 -300 240 0
-298 -300 -240 0
298 300 -271 -240 0
-298 300 -271 240 0
-301 271 0
-301 240 0
-301 -298 0
301 298 -271 -240 0
302 -271 298 0
-302 271 298 0
-303 298 0
302 -303 -271 0
-302 -303 271 0
302 303 271 -298 0
-302 303 -271 -298 0
-304 298 0
302 -304 271 0
-302 -304 -271 0
302 304 -271 -298 0
-302 304 271 -298 0
-305 302 0
-305 298 0
-305 -271 0
305 -302 271 -298 0
306 302 -298 0
-306 302 298 0
-307 302 0
306 -307 -298 0
-306 -307 298 0
306 307 -302 298 0
-306 307 -302 -298 0
-308 302 0
306 -308 298 0
-306 -308 -298 0
306 308 -302 -298 0
-306 308 -302 298 0
-309 302 0
-309 298 0
-309 -306 0
309 306 -302 -298 0
310 -302 306 0
-310 302 306 0
-311 306 0
310 -311 -302 0
-310 -311 302 0
310 311 302 -306 0
-310 311 -302 -306 0
-312 306 0
310 -312 302 0
-310 -312 -302 0
310 312 -302 -306 0
-310 312 302 -306 0
-313 310 0
-313 306 0
-313 -302 0
313 -310 302 -306 0
314 310 -306 0
-314 310 306 0
-315 310 0
314 -315 -306 0
-314 -315 306 0
314 315 -310 306 0
-314 315 -310 -306 0
-316 310 0
314 -316 306 0
-314 -316 -306 0
314 316 -310 -306 0
-314 316 -310 306 0
-317 310 0
-317 306 0
-317 -314 0
317 314 -310 -306 0
318 310 -314 0
-318 310 314 0
-319 310 0
318 -319 -314 0
-318 -319 314 0
318 319 -310 314 0
-318 319 -310 -314 0
-320 310 0
318 -320 314 0
-318 -320 -314 0
318 320 -310 -314 0
-318 320 -310 314 0
-321 310 0
-321 314 0
-321 -318 0
321 318 -310 -314 0
-259 0
-286 0
-294 0
-310 0
-318 0
